lbl,CUST NO.,READY TIME,XCOORD.,YCOORD.,DEMAND,DUE DATE,SERVICE TIME
6,20,33,103,69,30,93,90
6,41,95,109,71,20,163,90
6,85,193,112,71,20,252,90
6,80,286,113,71,10,341,90
6,31,370,113,69,20,440,90
6,25,462,112,67,10,534,90
6,172,561,111,66,20,617,90
6,77,650,110,66,10,710,90
6,110,748,107,63,30,800,90
6,162,840,102,60,30,900,90
